
Welcome to IBM(R) ILOG(R) CPLEX(R) Interactive Optimizer 22.1.1.0
  with Simplex, Mixed Integer & Barrier Optimizers
5725-A06 5725-A29 5724-Y48 5724-Y49 5724-Y54 5724-Y55 5655-Y21
Copyright IBM Corp. 1988, 2022.  All Rights Reserved.

Type 'help' for a list of available commands.
Type 'help' followed by a command name for more
information on commands.

CPLEX> Selected objective sense:  MINIMIZE
Selected objective  name:  00000000
Selected RHS        name:  RHS1
Selected bound      name:  BOUND
Problem 'ee.mps' read.
Read time = 0.03 sec. (3.17 ticks)
CPLEX> New value for time limit in seconds: 7200
CPLEX> New value for parallel optimization mode: -1
CPLEX> New value for default parallel thread count: 40
CPLEX> New value for mixed integer optimality gap tolerance: 1e-13
CPLEX> Version identifier: 22.1.1.0 | 2022-11-28 | 9160aff4d
CPXPARAM_Threads                                 40
CPXPARAM_Parallel                                -1
CPXPARAM_TimeLimit                               7200
CPXPARAM_MIP_Tolerances_MIPGap                   1e-13
Found incumbent of value 0.000000 after 0.00 sec. (0.31 ticks)
Tried aggregator 2 times.
MIP Presolve eliminated 179 rows and 2745 columns.
MIP Presolve modified 6090 coefficients.
Aggregator did 713 substitutions.
Reduced MIP has 3636 rows, 7835 columns, and 28932 nonzeros.
Reduced MIP has 7835 binaries, 0 generals, 0 SOSs, and 0 indicators.
Presolve time = 0.07 sec. (68.91 ticks)
Probing time = 0.03 sec. (5.57 ticks)
Tried aggregator 1 time.
Detecting symmetries...
Reduced MIP has 3636 rows, 7835 columns, and 28932 nonzeros.
Reduced MIP has 7835 binaries, 0 generals, 0 SOSs, and 0 indicators.
Presolve time = 0.02 sec. (21.99 ticks)
Probing time = 0.02 sec. (5.37 ticks)
Clique table members: 18782.
MIP emphasis: balance optimality and feasibility.
MIP search method: dynamic search.
Parallel mode: opportunistic, using up to 40 threads.
Root relaxation solution time = 0.12 sec. (102.32 ticks)

        Nodes                                         Cuts/
   Node  Left     Objective  IInf  Best Integer    Best Bound    ItCnt     Gap

*     0+    0                            0.0000  -1.54000e+13              --- 
*     0+    0                      -7.20000e+12  -1.54000e+13           113.89%
      0     0  -1.53900e+13    21  -7.20000e+12  -1.53900e+13     2358  113.75%
*     0+    0                      -1.53900e+13  -1.53900e+13             0.00%
      0     0  -1.53900e+13   116  -1.53900e+13      Cuts: 37     2889    0.00%
*     0+    0                      -1.53900e+13  -1.53900e+13             0.00%
*     0+    0                      -1.53900e+13  -1.53900e+13             0.00%
      0     0  -1.53900e+13   125  -1.53900e+13      Cuts: 73     3078    0.00%
*     0+    0                      -1.53900e+13  -1.53900e+13             0.00%
*     0+    0                      -1.53900e+13  -1.53900e+13             0.00%
*     0+    0                      -1.53900e+13  -1.53900e+13             0.00%

Repeating presolve.
Tried aggregator 3 times.
MIP Presolve eliminated 2121 rows and 4589 columns.
MIP Presolve modified 18 coefficients.
Aggregator did 551 substitutions.
Reduced MIP has 964 rows, 2630 columns, and 9032 nonzeros.
Reduced MIP has 2630 binaries, 0 generals, 0 SOSs, and 0 indicators.
Presolve time = 0.05 sec. (52.30 ticks)
Probing time = 0.00 sec. (2.93 ticks)
Tried aggregator 1 time.
Detecting symmetries...
Reduced MIP has 964 rows, 2630 columns, and 9032 nonzeros.
Reduced MIP has 2630 binaries, 0 generals, 0 SOSs, and 0 indicators.
Presolve time = 0.01 sec. (9.69 ticks)
Represolve time = 0.07 sec. (78.82 ticks)
Probing time = 0.00 sec. (2.87 ticks)
Clique table members: 5974.
MIP emphasis: balance optimality and feasibility.
MIP search method: dynamic search.
Parallel mode: opportunistic, using up to 40 threads.
Root relaxation solution time = 0.05 sec. (47.56 ticks)

        Nodes                                         Cuts/
   Node  Left     Objective  IInf  Best Integer    Best Bound    ItCnt     Gap

*     0+    0                      -1.53900e+13  -1.53900e+13             0.00%
      0     0  -1.53900e+13    88  -1.53900e+13  -1.53900e+13     5230    0.00%
      0     0  -1.53900e+13   150  -1.53900e+13      Cuts: 83     5631    0.00%
      0     0  -1.53900e+13    78  -1.53900e+13      Cuts: 96     5942    0.00%
      0     0  -1.53900e+13    43  -1.53900e+13      Cuts: 28     6020    0.00%
      0     0  -1.53900e+13    77  -1.53900e+13      Cuts: 25     6108    0.00%

Repeating presolve.
Tried aggregator 2 times.
MIP Presolve eliminated 241 rows and 1076 columns.
MIP Presolve added 66 rows and 0 columns.
MIP Presolve modified 348 coefficients.
Aggregator did 106 substitutions.
Reduced MIP has 683 rows, 1441 columns, and 4917 nonzeros.
Reduced MIP has 1441 binaries, 0 generals, 0 SOSs, and 0 indicators.
Presolve time = 0.01 sec. (11.04 ticks)
Probing time = 0.00 sec. (2.73 ticks)
Tried aggregator 1 time.
Detecting symmetries...
Reduced MIP has 683 rows, 1441 columns, and 4917 nonzeros.
Reduced MIP has 1441 binaries, 0 generals, 0 SOSs, and 0 indicators.
Presolve time = 0.00 sec. (3.62 ticks)
Represolve time = 0.03 sec. (28.36 ticks)
Probing time = 0.00 sec. (2.72 ticks)
Clique table members: 3427.
MIP emphasis: balance optimality and feasibility.
MIP search method: dynamic search.
Parallel mode: opportunistic, using up to 40 threads.
Root relaxation solution time = 0.02 sec. (18.27 ticks)

        Nodes                                         Cuts/
   Node  Left     Objective  IInf  Best Integer    Best Bound    ItCnt     Gap

*     0+    0                      -1.53900e+13  -1.53900e+13             0.00%
      0     0  -1.53900e+13    73  -1.53900e+13  -1.53900e+13     7097    0.00%
      0     0  -1.53900e+13   124  -1.53900e+13      Cuts: 33     7150    0.00%
      0     0  -1.53900e+13    73  -1.53900e+13      Cuts: 27     7207    0.00%
      0     0  -1.53900e+13   102  -1.53900e+13      Cuts: 30     7269    0.00%
      0     2  -1.53900e+13    83  -1.53900e+13  -1.53900e+13     7269    0.00%
Elapsed time = 1.62 sec. (1096.52 ticks, tree = 0.02 MB, solutions = 8)

GUB cover cuts applied:  4
Clique cuts applied:  44
Cover cuts applied:  32
Mixed integer rounding cuts applied:  18
Zero-half cuts applied:  21
Lift and project cuts applied:  7
Gomory fractional cuts applied:  8

Root node processing (before b&c):
  Real time             =    1.48 sec. (1096.64 ticks)
Parallel b&c, 40 threads:
  Real time             =    0.18 sec. (7.19 ticks)
  Sync time (average)   =    0.04 sec.
  Wait time (average)   =    0.00 sec.
                          ------------
Total (root+branch&cut) =    1.66 sec. (1103.83 ticks)

Solution pool: 8 solutions saved.

MIP - Integer optimal solution:  Objective = -1.5389999989e+13
Solution time =    1.70 sec.  Iterations = 7339  Nodes = 6
Deterministic time = 1103.86 ticks  (650.84 ticks/sec)

CPLEX> Solution 'p9' written to file 'ee.sol'.
CPLEX> 